(set-info :source |printed by MathSAT|)
(declare-fun param_TryToMove1.next () Bool)
(declare-fun ite () Bool)
(declare-fun call_redge.r.next () Bool)
(declare-fun moving () Bool)
(declare-fun call_fedge.call_redge.flby () Bool)
(declare-fun call_redge2.flby.next () Bool)
(declare-fun call_sustain.ite () Bool)
(declare-fun call_redge3.r () Bool)
(declare-fun call_redge2.flby () Bool)
(declare-fun stop.next () Bool)
(declare-fun call_sustain.ite2.next () Bool)
(declare-fun flby2 () Bool)
(declare-fun call_sustain.s () Bool)
(declare-fun call_fedge2.call_redge.flby.next () Bool)
(declare-fun stop () Bool)
(declare-fun moving.next () Bool)
(declare-fun call_fedge.f.next () Bool)
(declare-fun call_sustain.ite.next () Bool)
(declare-fun flby2.next () Bool)
(declare-fun call_redge3.flby () Bool)
(declare-fun call_redge4.flby.next () Bool)
(declare-fun call_redge.r () Bool)
(declare-fun start2.next () Bool)
(declare-fun call_sustain.flby.next () Bool)
(declare-fun flby3 () Bool)
(declare-fun call_redge.flby () Bool)
(declare-fun call_redge2.r.next () Bool)
(declare-fun call_redge2.r () Bool)
(declare-fun call_fedge.f () Bool)
(declare-fun flby.next () Bool)
(declare-fun start1 () Bool)
(declare-fun call_redge3.r.next () Bool)
(declare-fun call_redge4.flby () Bool)
(declare-fun call_redge4.r () Bool)
(declare-fun param_TryToMove2.next () Bool)
(declare-fun call_sustain.flby () Bool)
(declare-fun call_fedge.call_redge.r () Bool)
(declare-fun call_fedge.call_redge.flby.next () Bool)
(declare-fun call_redge4.r.next () Bool)
(declare-fun ite2.next () Bool)
(declare-fun call_sustain.ite2 () Bool)
(declare-fun MayMove1 () Bool)
(declare-fun _OK_.next () Bool)
(declare-fun flby () Bool)
(declare-fun MayMove1.next () Bool)
(declare-fun ite2 () Bool)
(declare-fun param_TryToMove2 () Bool)
(declare-fun ite.next () Bool)
(declare-fun call_redge3.flby.next () Bool)
(declare-fun call_redge.flby.next () Bool)
(declare-fun param_MaySafelyMove () Bool)
(declare-fun start2 () Bool)
(declare-fun MayMove2 () Bool)
(declare-fun call_fedge2.call_redge.r.next () Bool)
(declare-fun call_sustain.s.next () Bool)
(declare-fun call_fedge2.call_redge.r () Bool)
(declare-fun param_MaySafelyMove.next () Bool)
(declare-fun call_fedge2.call_redge.flby () Bool)
(declare-fun call_fedge2.f () Bool)
(declare-fun call_fedge.call_redge.r.next () Bool)
(declare-fun call_fedge2.f.next () Bool)
(declare-fun MayMove2.next () Bool)
(declare-fun start1.next () Bool)
(declare-fun flby3.next () Bool)
(declare-fun _OK_ () Bool)
(declare-fun param_TryToMove1 () Bool)
(define-fun .def_543 () Bool (= call_redge4.flby.next call_redge4.r.next))
(define-fun .def_541 () Bool (= call_redge3.flby.next call_redge3.r.next))
(define-fun .def_539 () Bool (= call_fedge2.call_redge.flby.next call_fedge2.call_redge.r.next))
(define-fun .def_537 () Bool (= call_fedge2.f.next call_fedge2.call_redge.r.next))
(define-fun .def_534 () Bool (= call_fedge.call_redge.flby.next call_fedge.call_redge.r.next))
(define-fun .def_532 () Bool (= call_fedge.f.next call_fedge.call_redge.r.next))
(define-fun .def_529 () Bool (= call_redge2.flby.next call_redge2.r.next))
(define-fun .def_527 () Bool (= call_redge.flby.next call_redge.r.next))
(define-fun .def_525 () Bool (= call_sustain.flby.next call_sustain.s.next))
(define-fun .def_496 () Bool (not call_redge4.r.next))
(define-fun .def_494 () Bool (not call_redge3.r.next))
(define-fun .def_497 () Bool (or .def_494 .def_496))
(define-fun .def_523 () Bool (or ite2.next .def_497))
(define-fun .def_520 () Bool (= moving.next call_sustain.s.next))
(define-fun .def_516 () Bool (not moving.next))
(define-fun .def_515 () Bool (= param_MaySafelyMove.next ite.next))
(define-fun .def_517 () Bool (or .def_515 .def_516))
(define-fun .def_514 () Bool (or ite.next moving.next))
(define-fun .def_518 () Bool (and .def_514 .def_517))
(define-fun .def_521 () Bool (and .def_518 .def_520))
(define-fun .def_510 () Bool (or call_fedge.f.next call_fedge2.f.next))
(define-fun .def_511 () Bool (= stop.next .def_510))
(define-fun .def_506 () Bool (= start2.next call_redge2.r.next))
(define-fun .def_502 () Bool (= start1.next call_redge.r.next))
(define-fun .def_498 () Bool (not .def_497))
(define-fun .def_484 () Bool (not start2.next))
(define-fun .def_482 () Bool (not start1.next))
(define-fun .def_486 () Bool (and .def_482 .def_484))
(define-fun .def_409 () Bool (not stop.next))
(define-fun .def_485 () Bool (and .def_409 .def_484))
(define-fun .def_487 () Bool (or .def_485 .def_486))
(define-fun .def_483 () Bool (and .def_409 .def_482))
(define-fun .def_488 () Bool (or .def_483 .def_487))
(define-fun .def_479 () Bool (and start1.next start2.next))
(define-fun .def_480 () Bool (and stop.next .def_479))
(define-fun .def_481 () Bool (not .def_480))
(define-fun .def_489 () Bool (and .def_481 .def_488))
(define-fun .def_491 () Bool (and .def_489 ite.next))
(define-fun .def_492 () Bool (= ite2.next .def_491))
(define-fun .def_499 () Bool (or .def_492 .def_498))
(define-fun .def_474 () Bool (or start1.next start2.next))
(define-fun .def_476 () Bool (not .def_474))
(define-fun .def_477 () Bool (or call_sustain.ite2.next .def_476))
(define-fun .def_471 () Bool (= call_sustain.ite.next call_sustain.ite2.next))
(define-fun .def_475 () Bool (or .def_471 .def_474))
(define-fun .def_478 () Bool (and .def_475 .def_477))
(define-fun .def_500 () Bool (and .def_478 .def_499))
(define-fun .def_503 () Bool (and .def_500 .def_502))
(define-fun .def_468 () Bool (and param_TryToMove2.next param_MaySafelyMove.next))
(define-fun .def_469 () Bool (= MayMove2.next .def_468))
(define-fun .def_466 () Bool (= flby3.next _OK_.next))
(define-fun .def_463 () Bool (or param_TryToMove1.next param_MaySafelyMove.next))
(define-fun .def_464 () Bool (= MayMove1.next .def_463))
(define-fun .def_467 () Bool (and .def_464 .def_466))
(define-fun .def_470 () Bool (and .def_467 .def_469))
(define-fun .def_504 () Bool (and .def_470 .def_503))
(define-fun .def_507 () Bool (and .def_504 .def_506))
(define-fun .def_512 () Bool (and .def_507 .def_511))
(define-fun .def_522 () Bool (and .def_512 .def_521))
(define-fun .def_524 () Bool (and .def_522 .def_523))
(define-fun .def_526 () Bool (and .def_524 .def_525))
(define-fun .def_528 () Bool (and .def_526 .def_527))
(define-fun .def_530 () Bool (and .def_528 .def_529))
(define-fun .def_533 () Bool (and .def_530 .def_532))
(define-fun .def_535 () Bool (and .def_533 .def_534))
(define-fun .def_538 () Bool (and .def_535 .def_537))
(define-fun .def_540 () Bool (and .def_538 .def_539))
(define-fun .def_542 () Bool (and .def_540 .def_541))
(define-fun .def_544 () Bool (and .def_542 .def_543))
(define-fun .def_401 () Bool (= call_redge4.flby call_redge4.r))
(define-fun .def_399 () Bool (= call_redge3.flby call_redge3.r))
(define-fun .def_397 () Bool (= call_fedge2.call_redge.flby call_fedge2.call_redge.r))
(define-fun .def_395 () Bool (= call_fedge2.f call_fedge2.call_redge.r))
(define-fun .def_392 () Bool (= call_fedge.call_redge.flby call_fedge.call_redge.r))
(define-fun .def_390 () Bool (= call_fedge.f call_fedge.call_redge.r))
(define-fun .def_387 () Bool (= call_redge2.flby call_redge2.r))
(define-fun .def_385 () Bool (= call_redge.flby call_redge.r))
(define-fun .def_383 () Bool (= call_sustain.flby call_sustain.s))
(define-fun .def_354 () Bool (not call_redge4.r))
(define-fun .def_352 () Bool (not call_redge3.r))
(define-fun .def_355 () Bool (or .def_352 .def_354))
(define-fun .def_381 () Bool (or ite2 .def_355))
(define-fun .def_378 () Bool (= moving call_sustain.s))
(define-fun .def_374 () Bool (not moving))
(define-fun .def_373 () Bool (= param_MaySafelyMove ite))
(define-fun .def_375 () Bool (or .def_373 .def_374))
(define-fun .def_372 () Bool (or ite moving))
(define-fun .def_376 () Bool (and .def_372 .def_375))
(define-fun .def_379 () Bool (and .def_376 .def_378))
(define-fun .def_368 () Bool (or call_fedge.f call_fedge2.f))
(define-fun .def_369 () Bool (= stop .def_368))
(define-fun .def_364 () Bool (= start2 call_redge2.r))
(define-fun .def_360 () Bool (= start1 call_redge.r))
(define-fun .def_356 () Bool (not .def_355))
(define-fun .def_341 () Bool (not start2))
(define-fun .def_339 () Bool (not start1))
(define-fun .def_343 () Bool (and .def_339 .def_341))
(define-fun .def_281 () Bool (not stop))
(define-fun .def_342 () Bool (and .def_281 .def_341))
(define-fun .def_344 () Bool (or .def_342 .def_343))
(define-fun .def_340 () Bool (and .def_281 .def_339))
(define-fun .def_345 () Bool (or .def_340 .def_344))
(define-fun .def_336 () Bool (and start1 start2))
(define-fun .def_337 () Bool (and stop .def_336))
(define-fun .def_338 () Bool (not .def_337))
(define-fun .def_346 () Bool (and .def_338 .def_345))
(define-fun .def_348 () Bool (and .def_346 ite))
(define-fun .def_350 () Bool (= .def_348 ite2))
(define-fun .def_357 () Bool (or .def_350 .def_356))
(define-fun .def_291 () Bool (or start1 start2))
(define-fun .def_333 () Bool (not .def_291))
(define-fun .def_334 () Bool (or call_sustain.ite2 .def_333))
(define-fun .def_331 () Bool (= call_sustain.ite call_sustain.ite2))
(define-fun .def_332 () Bool (or .def_291 .def_331))
(define-fun .def_335 () Bool (and .def_332 .def_334))
(define-fun .def_358 () Bool (and .def_335 .def_357))
(define-fun .def_361 () Bool (and .def_358 .def_360))
(define-fun .def_327 () Bool (and param_TryToMove2 param_MaySafelyMove))
(define-fun .def_328 () Bool (= MayMove2 .def_327))
(define-fun .def_325 () Bool (= flby3 _OK_))
(define-fun .def_322 () Bool (or param_TryToMove1 param_MaySafelyMove))
(define-fun .def_323 () Bool (= MayMove1 .def_322))
(define-fun .def_326 () Bool (and .def_323 .def_325))
(define-fun .def_329 () Bool (and .def_326 .def_328))
(define-fun .def_362 () Bool (and .def_329 .def_361))
(define-fun .def_365 () Bool (and .def_362 .def_364))
(define-fun .def_370 () Bool (and .def_365 .def_369))
(define-fun .def_380 () Bool (and .def_370 .def_379))
(define-fun .def_382 () Bool (and .def_380 .def_381))
(define-fun .def_384 () Bool (and .def_382 .def_383))
(define-fun .def_386 () Bool (and .def_384 .def_385))
(define-fun .def_388 () Bool (and .def_386 .def_387))
(define-fun .def_391 () Bool (and .def_388 .def_390))
(define-fun .def_393 () Bool (and .def_391 .def_392))
(define-fun .def_396 () Bool (and .def_393 .def_395))
(define-fun .def_398 () Bool (and .def_396 .def_397))
(define-fun .def_400 () Bool (and .def_398 .def_399))
(define-fun .def_402 () Bool (and .def_400 .def_401))
(define-fun .def_545 () Bool (and .def_402 .def_544))
(define-fun .def_413 () Bool (not param_TryToMove2))
(define-fun .def_458 () Bool (or .def_413 param_TryToMove2.next))
(define-fun .def_460 () Bool (= .def_458 call_redge4.flby.next))
(define-fun .def_417 () Bool (not param_TryToMove1))
(define-fun .def_453 () Bool (or .def_417 param_TryToMove1.next))
(define-fun .def_455 () Bool (= .def_453 call_redge3.flby.next))
(define-fun .def_447 () Bool (not MayMove2.next))
(define-fun .def_448 () Bool (or MayMove2 .def_447))
(define-fun .def_450 () Bool (= .def_448 call_fedge2.call_redge.flby.next))
(define-fun .def_442 () Bool (not MayMove1.next))
(define-fun .def_443 () Bool (or MayMove1 .def_442))
(define-fun .def_445 () Bool (= .def_443 call_fedge.call_redge.flby.next))
(define-fun .def_301 () Bool (and flby2 MayMove2))
(define-fun .def_437 () Bool (not .def_301))
(define-fun .def_436 () Bool (and flby2.next MayMove2.next))
(define-fun .def_438 () Bool (or .def_436 .def_437))
(define-fun .def_440 () Bool (= .def_438 call_redge2.flby.next))
(define-fun .def_296 () Bool (and flby MayMove1))
(define-fun .def_430 () Bool (not .def_296))
(define-fun .def_429 () Bool (and flby.next MayMove1.next))
(define-fun .def_431 () Bool (or .def_429 .def_430))
(define-fun .def_433 () Bool (= .def_431 call_redge.flby.next))
(define-fun .def_426 () Bool (= call_sustain.ite2.next call_sustain.flby.next))
(define-fun .def_422 () Bool (= flby3.next ite2.next))
(define-fun .def_418 () Bool (= flby2.next .def_417))
(define-fun .def_414 () Bool (= flby.next .def_413))
(define-fun .def_408 () Bool (not call_sustain.ite.next))
(define-fun .def_410 () Bool (or .def_408 .def_409))
(define-fun .def_405 () Bool (= call_sustain.s call_sustain.ite.next))
(define-fun .def_407 () Bool (or .def_405 stop.next))
(define-fun .def_411 () Bool (and .def_407 .def_410))
(define-fun .def_415 () Bool (and .def_411 .def_414))
(define-fun .def_419 () Bool (and .def_415 .def_418))
(define-fun .def_423 () Bool (and .def_419 .def_422))
(define-fun .def_427 () Bool (and .def_423 .def_426))
(define-fun .def_434 () Bool (and .def_427 .def_433))
(define-fun .def_441 () Bool (and .def_434 .def_440))
(define-fun .def_446 () Bool (and .def_441 .def_445))
(define-fun .def_451 () Bool (and .def_446 .def_450))
(define-fun .def_456 () Bool (and .def_451 .def_455))
(define-fun .def_461 () Bool (and .def_456 .def_460))
(define-fun .def_546 () Bool (and .def_461 .def_545))
(assert .def_546)
